benchmarks/ising_models/2DLattices/SqrLattices/J=1/4x4_square_lattice.wcnf
p wcnf 40 96
w -2 0.367879 0
w 2 2.718282 0
w -3 0.367879 0
w 3 2.718282 0
w -5 0.367879 0
w 5 2.718282 0
w -6 0.367879 0
w 6 2.718282 0
w -8 0.367879 0
w 8 2.718282 0
w -9 0.367879 0
w 9 2.718282 0
w -11 0.367879 0
w 11 2.718282 0
w -13 0.367879 0
w 13 2.718282 0
w -14 0.367879 0
w 14 2.718282 0
w -16 0.367879 0
w 16 2.718282 0
w -17 0.367879 0
w 17 2.718282 0
w -19 0.367879 0
w 19 2.718282 0
w -20 0.367879 0
w 20 2.718282 0
w -22 0.367879 0
w 22 2.718282 0
w -24 0.367879 0
w 24 2.718282 0
w -25 0.367879 0
w 25 2.718282 0
w -27 0.367879 0
w 27 2.718282 0
w -28 0.367879 0
w 28 2.718282 0
w -30 0.367879 0
w 30 2.718282 0
w -31 0.367879 0
w 31 2.718282 0
w -33 0.367879 0
w 33 2.718282 0
w -35 0.367879 0
w 35 2.718282 0
w -37 0.367879 0
w 37 2.718282 0
w -39 0.367879 0
w 39 2.718282 0
2 1 4 0
2 -1 -4 0
-2 1 -4 0
-2 -1 4 0
3 1 12 0
3 -1 -12 0
-3 1 -12 0
-3 -1 12 0
5 4 7 0
5 -4 -7 0
-5 4 -7 0
-5 -4 7 0
6 4 15 0
6 -4 -15 0
-6 4 -15 0
-6 -4 15 0
8 7 10 0
8 -7 -10 0
-8 7 -10 0
-8 -7 10 0
9 7 18 0
9 -7 -18 0
-9 7 -18 0
-9 -7 18 0
11 10 21 0
11 -10 -21 0
-11 10 -21 0
-11 -10 21 0
13 12 15 0
13 -12 -15 0
-13 12 -15 0
-13 -12 15 0
14 12 23 0
14 -12 -23 0
-14 12 -23 0
-14 -12 23 0
16 15 18 0
16 -15 -18 0
-16 15 -18 0
-16 -15 18 0
17 15 26 0
17 -15 -26 0
-17 15 -26 0
-17 -15 26 0
19 18 21 0
19 -18 -21 0
-19 18 -21 0
-19 -18 21 0
20 18 29 0
20 -18 -29 0
-20 18 -29 0
-20 -18 29 0
22 21 32 0
22 -21 -32 0
-22 21 -32 0
-22 -21 32 0
24 23 26 0
24 -23 -26 0
-24 23 -26 0
-24 -23 26 0
25 23 34 0
25 -23 -34 0
-25 23 -34 0
-25 -23 34 0
27 26 29 0
27 -26 -29 0
-27 26 -29 0
-27 -26 29 0
28 26 36 0
28 -26 -36 0
-28 26 -36 0
-28 -26 36 0
30 29 32 0
30 -29 -32 0
-30 29 -32 0
-30 -29 32 0
31 29 38 0
31 -29 -38 0
-31 29 -38 0
-31 -29 38 0
33 32 40 0
33 -32 -40 0
-33 32 -40 0
-33 -32 40 0
35 34 36 0
35 -34 -36 0
-35 34 -36 0
-35 -34 36 0
37 36 38 0
37 -36 -38 0
-37 36 -38 0
-37 -36 38 0
39 38 40 0
39 -38 -40 0
-39 38 -40 0
-39 -38 40 0
