benchmarks/ising_models/2DLattices/SqrLattices/J=1/4x4_square_lattice
ISING
16
2 2 2 2 2 2 2 2 2 2 2 2 2 2 2 2
0 24 1 1
2 0 1
2 0 4
2 1 2
2 1 5
2 2 3
2 2 6
2 3 7
2 4 5
2 4 8
2 5 6
2 5 9
2 6 7
2 6 10
2 7 11
2 8 9
2 8 12
2 9 10
2 9 13
2 10 11
2 10 14
2 11 15
2 12 13
2 13 14
2 14 15

4
 1 -1
 -1 1
4
 1 -1
 -1 1
4
 1 -1
 -1 1
4
 1 -1
 -1 1
4
 1 -1
 -1 1
4
 1 -1
 -1 1
4
 1 -1
 -1 1
4
 1 -1
 -1 1
4
 1 -1
 -1 1
4
 1 -1
 -1 1
4
 1 -1
 -1 1
4
 1 -1
 -1 1
4
 1 -1
 -1 1
4
 1 -1
 -1 1
4
 1 -1
 -1 1
4
 1 -1
 -1 1
4
 1 -1
 -1 1
4
 1 -1
 -1 1
4
 1 -1
 -1 1
4
 1 -1
 -1 1
4
 1 -1
 -1 1
4
 1 -1
 -1 1
4
 1 -1
 -1 1
4
 1 -1
 -1 1
